 200 23 
 96 26 96 46 16 41 30 84 85 35 35 20 
 49 5 90 9 26 44 71 25 66 26 2 
 2 
 1 16 
 5 
 1 3 12 13 22 
 3 
 4 6 15 
 23 
 1 2 3 4 5 6 7 8 9 10 11 12 
 13 14 15 16 17 18 19 20 21 22 23 
 2 
 10 22 
 22 
 1 2 3 4 6 7 8 9 10 11 12 13 
 14 15 16 17 18 19 20 21 22 23 
 6 
 1 2 4 10 11 15 
 21 
 1 2 3 4 5 7 8 9 10 11 12 13 
 14 15 17 18 19 20 21 22 23 
 7 
 7 8 11 18 19 21 23 
 8 
 1 2 4 6 8 12 14 23 
 23 
 1 2 3 4 5 6 7 8 9 10 11 12 
 13 14 15 16 17 18 19 20 21 22 23 
 21 
 1 2 3 4 5 6 7 8 9 10 11 12 
 13 14 16 17 19 20 21 22 23 
 5 
 4 5 19 20 22 
 10 
 2 4 7 11 12 13 14 16 19 23 
 23 
 1 2 3 4 5 6 7 8 9 10 11 12 
 13 14 15 16 17 18 19 20 21 22 23 
 3 
 10 18 23 
 12 
 1 2 6 7 8 9 11 15 17 18 21 23 
 21 
 1 2 3 4 5 6 7 8 9 10 11 12 
 13 14 15 16 17 18 19 20 21 
 14 
 1 2 4 7 8 10 11 14 15 17 18 20 
 21 22 
 9 
 3 4 6 7 9 12 14 15 18 
 18 
 1 2 3 4 5 6 8 9 11 12 13 15 
 16 17 18 19 21 23 
 9 
 1 2 3 9 14 16 18 19 23 
 16 
 1 2 3 4 6 7 9 10 14 15 16 18 
 19 21 22 23 
 22 
 1 2 3 4 5 6 8 9 10 11 12 13 
 14 15 16 17 18 19 20 21 22 23 
 16 
 1 2 3 4 5 7 8 9 12 14 15 16 
 18 21 22 23 
 14 
 2 6 8 9 10 11 12 14 15 16 17 18 
 21 22 
 3 
 6 14 18 
 13 
 1 6 7 8 11 12 13 14 15 16 18 19 
 23 
 11 
 2 3 6 7 9 10 12 13 16 18 21 
 19 
 1 2 5 6 7 8 9 10 12 13 14 15 
 16 17 18 19 20 21 23 
 14 
 1 2 3 8 9 10 11 12 16 19 20 21 
 22 23 
 4 
 3 15 19 22 
 9 
 2 4 5 6 8 9 10 21 23 
 10 
 7 8 10 12 13 14 15 16 19 20 
 10 
 2 3 6 8 11 14 15 17 20 21 
 6 
 2 9 10 11 17 21 
 18 
 2 3 4 5 6 7 8 9 11 12 14 15 
 16 17 18 20 22 23 
 16 
 1 2 3 5 7 8 9 12 13 14 15 18 
 20 21 22 23 
 11 
 1 4 5 9 11 13 14 17 21 22 23 
 8 
 2 4 10 13 17 18 21 23 
 4 
 13 16 18 20 
 2 
 11 17 
 6 
 6 14 15 16 18 23 
 21 
 1 3 4 5 6 7 8 9 10 11 12 13 
 15 16 17 18 19 20 21 22 23 
 21 
 1 2 3 4 5 6 7 8 9 11 12 13 
 14 15 16 17 18 19 20 22 23 
 8 
 2 4 7 10 13 15 17 22 
 6 
 7 13 14 20 21 23 
 13 
 1 2 4 5 6 7 12 13 16 18 21 22 
 23 
 8 
 1 3 7 10 12 14 20 23 
 6 
 1 3 8 9 11 15 
 23 
 1 2 3 4 5 6 7 8 9 10 11 12 
 13 14 15 16 17 18 19 20 21 22 23 
 8 
 2 7 10 11 13 14 19 21 
 18 
 1 4 6 8 10 11 12 13 14 15 16 17 
 18 19 20 21 22 23 
 3 
 7 18 23 
 21 
 1 2 3 4 5 6 7 8 9 10 11 12 
 13 14 16 17 18 19 20 21 23 
 6 
 1 6 7 11 18 19 
 22 
 1 2 3 4 5 6 7 8 9 10 11 12 
 13 14 15 16 17 18 19 21 22 23 
 17 
 1 2 3 5 6 7 8 10 12 15 16 17 
 18 20 21 22 23 
 5 
 10 12 14 17 22 
 12 
 1 2 5 6 7 9 10 12 15 16 19 20 
 3 
 2 12 16 
 22 
 2 3 4 5 6 7 8 9 10 11 12 13 
 14 15 16 17 18 19 20 21 22 23 
 18 
 1 2 3 4 5 6 7 10 11 12 13 15 
 16 17 19 20 21 23 
 4 
 8 11 13 21 
 4 
 1 3 14 17 
 11 
 6 7 8 9 13 15 16 18 20 21 23 
 4 
 1 15 18 20 
 14 
 1 2 5 6 7 8 10 12 14 15 18 19 
 20 23 
 18 
 1 2 3 4 5 6 7 10 11 12 13 14 
 15 16 18 20 21 23 
 10 
 1 2 7 9 14 15 16 17 19 23 
 9 
 4 6 11 12 13 16 17 21 22 
 11 
 2 3 6 8 10 12 16 17 18 20 22 
 10 
 2 6 7 8 9 13 14 15 19 22 
 20 
 1 2 3 4 6 7 8 10 12 13 14 15 
 16 17 18 19 20 21 22 23 
 11 
 1 5 6 10 11 14 15 16 18 19 20 
 18 
 1 2 3 4 6 7 9 11 12 14 16 17 
 18 19 20 21 22 23 
 5 
 1 2 14 21 22 
 14 
 1 2 3 4 5 9 13 14 15 16 18 19 
 20 23 
 23 
 1 2 3 4 5 6 7 8 9 10 11 12 
 13 14 15 16 17 18 19 20 21 22 23 
 18 
 1 2 3 5 7 8 9 10 11 13 15 16 
 17 18 19 21 22 23 
 6 
 3 4 13 15 16 17 
 3 
 4 6 22 
 7 
 2 3 7 11 14 19 21 
 10 
 2 3 4 5 7 12 14 17 18 22 
 23 
 1 2 3 4 5 6 7 8 9 10 11 12 
 13 14 15 16 17 18 19 20 21 22 23 
 2 
 9 19 
 13 
 2 4 6 7 8 9 11 15 17 19 20 22 
 23 
 20 
 1 2 3 4 5 6 7 8 9 10 11 12 
 13 14 15 17 18 19 21 23 
 23 
 1 2 3 4 5 6 7 8 9 10 11 12 
 13 14 15 16 17 18 19 20 21 22 23 
 6 
 6 13 14 16 19 23 
 2 
 16 23 
 13 
 1 4 6 8 9 10 11 14 15 17 18 20 
 21 
 8 
 3 7 8 11 17 19 20 22 
 9 
 4 7 8 9 13 14 18 21 23 
 2 
 3 6 
 20 
 1 2 3 4 5 7 8 10 11 12 13 14 
 15 16 17 18 19 20 21 23 
 17 
 2 3 4 5 6 8 9 10 11 12 13 14 
 15 18 20 21 22 
 6 
 5 8 9 11 15 22 
 6 
 1 12 15 18 20 23 
 10 
 1 2 3 6 7 8 9 11 12 14 
 6 
 3 16 19 21 22 23 
 23 
 1 2 3 4 5 6 7 8 9 10 11 12 
 13 14 15 16 17 18 19 20 21 22 23 
 17 
 1 3 4 5 8 9 10 11 12 14 16 17 
 18 19 20 21 22 
 19 
 2 3 5 6 8 9 10 11 12 13 15 16 
 17 18 19 20 21 22 23 
 6 
 3 4 7 12 13 20 
 6 
 3 4 7 13 15 20 
 23 
 1 2 3 4 5 6 7 8 9 10 11 12 
 13 14 15 16 17 18 19 20 21 22 23 
 10 
 1 3 4 5 6 9 13 14 18 23 
 23 
 1 2 3 4 5 6 7 8 9 10 11 12 
 13 14 15 16 17 18 19 20 21 22 23 
 5 
 4 12 17 18 20 
 3 
 9 14 20 
 8 
 1 5 8 9 14 16 18 20 
 17 
 1 2 3 4 6 7 8 10 11 12 13 14 
 15 16 17 19 23 
 20 
 1 2 3 4 5 6 8 9 10 11 12 14 
 16 17 18 19 20 21 22 23 
 19 
 1 2 3 4 5 6 7 9 10 11 12 15 
 16 17 18 20 21 22 23 
 5 
 3 5 13 18 19 
 18 
 1 2 3 4 5 6 7 9 10 11 13 15 
 16 17 18 19 22 23 
 18 
 1 3 5 6 8 9 10 11 12 13 14 15 
 16 18 19 20 21 22 
 22 
 1 2 3 4 5 6 7 8 9 10 11 12 
 13 14 15 16 17 18 19 20 22 23 
 17 
 1 2 4 5 6 7 8 9 10 12 15 16 
 18 19 20 22 23 
 6 
 2 4 8 10 14 16 
 17 
 1 3 4 5 6 8 9 11 12 13 15 16 
 17 19 21 22 23 
 5 
 6 11 16 17 20 
 15 
 1 2 3 4 8 9 10 12 14 15 16 17 
 19 21 23 
 23 
 1 2 3 4 5 6 7 8 9 10 11 12 
 13 14 15 16 17 18 19 20 21 22 23 
 10 
 2 3 4 6 10 11 16 18 19 23 
 20 
 1 2 3 4 5 6 7 8 9 10 11 12 
 13 15 16 17 18 19 22 23 
 19 
 1 2 3 6 7 8 9 10 11 13 14 15 
 16 17 19 20 21 22 23 
 6 
 11 13 14 15 20 23 
 6 
 1 2 5 12 15 17 
 8 
 4 6 14 15 19 20 21 22 
 19 
 1 2 4 5 6 7 9 10 11 12 13 14 
 15 16 17 18 19 21 22 
 14 
 1 4 5 6 7 8 10 11 13 14 15 18 
 20 21 
 14 
 1 3 6 8 9 10 12 13 16 17 18 19 
 20 23 
 15 
 3 4 5 7 8 10 11 13 14 15 18 19 
 21 22 23 
 21 
 1 2 3 4 6 7 8 9 10 11 12 13 
 15 16 17 18 19 20 21 22 23 
 4 
 10 14 16 21 
 22 
 1 2 3 4 5 6 7 8 9 10 11 12 
 13 14 15 16 17 18 20 21 22 23 
 2 
 18 20 
 6 
 1 4 6 8 12 18 
 14 
 1 3 4 5 6 7 10 12 14 15 18 20 
 21 23 
 11 
 1 2 4 5 6 9 10 12 15 18 20 
 2 
 16 19 
 7 
 1 2 4 6 9 10 11 
 3 
 3 14 16 
 19 
 1 3 4 6 7 8 10 11 12 14 15 16 
 17 18 19 20 21 22 23 
 5 
 2 8 12 13 15 
 8 
 1 2 5 14 17 20 21 22 
 10 
 2 3 6 7 8 10 13 18 19 20 
 5 
 2 5 7 11 19 
 3 
 7 15 19 
 12 
 1 4 5 8 9 13 14 16 17 20 21 22 
 7 
 1 2 6 8 10 13 18 
 15 
 1 2 3 5 7 9 10 13 14 15 19 20 
 21 22 23 
 20 
 1 2 3 4 5 7 8 9 11 12 13 14 
 15 16 17 18 19 20 21 22 
 3 
 13 14 18 
 6 
 3 8 11 15 20 23 
 11 
 4 7 9 10 12 13 16 18 19 21 22 
 4 
 7 12 19 21 
 12 
 2 5 6 7 8 9 10 12 16 20 22 23 
 22 
 1 2 3 4 5 6 7 8 9 10 11 12 
 13 14 15 16 17 18 19 20 22 23 
 2 
 12 17 
 2 
 10 12 
 14 
 2 5 7 8 10 11 13 15 17 18 19 20 
 21 23 
 16 
 1 3 4 5 6 7 9 10 11 12 16 17 
 18 19 20 22 
 10 
 2 5 13 14 16 17 18 21 22 23 
 16 
 1 2 3 5 6 8 9 10 12 13 16 18 
 19 20 22 23 
 17 
 3 5 6 7 8 9 10 11 13 15 16 17 
 18 19 20 22 23 
 13 
 1 2 3 4 5 6 8 12 15 16 19 20 
 21 
 12 
 1 2 6 7 8 10 11 13 14 18 19 21 
 9 
 1 7 8 9 12 14 18 21 23 
 5 
 1 2 7 14 21 
 12 
 1 2 3 5 7 8 9 10 16 17 19 23 
 14 
 6 7 8 10 11 12 13 14 16 17 19 20 
 21 22 
 18 
 1 3 4 5 6 7 8 10 11 12 13 14 
 15 16 18 19 20 23 
 19 
 1 3 4 5 6 7 8 12 13 14 15 16 
 17 18 19 20 21 22 23 
 16 
 1 2 4 5 7 8 9 10 12 15 16 17 
 20 21 22 23 
 19 
 1 3 4 5 6 8 9 11 12 13 15 16 
 17 18 19 20 21 22 23 
 13 
 1 2 5 8 9 12 13 15 16 17 19 20 
 21 
 3 
 6 16 18 
 3 
 7 13 20 
 9 
 2 3 5 8 11 12 13 20 22 
 13 
 1 2 3 5 6 10 14 15 16 17 18 19 
 21 
 17 
 1 2 5 6 7 10 11 12 13 14 15 16 
 17 19 20 22 23 
 23 
 1 2 3 4 5 6 7 8 9 10 11 12 
 13 14 15 16 17 18 19 20 21 22 23 
 6 
 3 7 11 15 21 23 
 14 
 2 3 4 6 7 8 10 11 12 16 17 18 
 20 23 
 18 
 1 2 3 4 5 6 8 10 12 13 14 15 
 16 19 20 21 22 23 
 19 
 1 3 4 6 7 8 9 10 11 14 15 16 
 17 18 19 20 21 22 23 
 8 
 1 3 5 7 9 11 15 21 
 10 
 2 3 4 6 7 8 11 18 20 23 
 19 
 1 2 3 4 7 8 9 11 12 13 14 15 
 16 17 18 20 21 22 23 
 8 
 1 3 6 7 9 16 17 18 
 16 
 3 6 7 8 9 11 12 14 15 16 17 18 
 19 20 21 23 
 16 
 1 2 3 4 5 6 8 11 12 14 16 19 
 20 21 22 23 
 21 
 2 3 4 5 6 7 8 9 10 11 12 13 
 14 15 16 17 19 20 21 22 23 
 3 
 8 14 15 
 20 
 1 2 3 4 5 7 9 10 11 12 13 14 
 15 16 17 18 19 20 22 23 
 18 
 1 2 3 4 6 7 8 9 10 11 12 13 
 15 16 17 18 19 22 
 6 
 1 3 9 14 19 20 
 